language ESSENCE' 1.0
letting lastdx=101
letting cage be [
[16,3,13,2,13,2,14,0,0, 0,0],
[15,13,6,0,0, 0,0, 0,0, 0,0],
[23,14,6,15,6,16,6,16,7,0,0],
[1,2,9,0,0, 0,0, 0,0, 0,0],
[14,2,15,1,15,0,0, 0,0, 0,0],
[22,14,9,14,10,14,11,13,11,0,0],
[47,11,2,11,1,10,1,10,2,0,0],
[24,2,7,2,8,1,8,0,0, 0,0],
[8,6,5,0,0, 0,0, 0,0, 0,0],
[4,6,12,0,0, 0,0, 0,0, 0,0],
[60,8,11,8,10,7,10,7,9,7,8],
[30,9,14,9,13,8,13,0,0, 0,0],
[31,5,15,5,16,0,0, 0,0, 0,0],
[32,6,16,7,16,8,16,9,16,10,16],
[16,7,14,6,14,0,0, 0,0, 0,0],
[16,6,6,7,6,0,0, 0,0, 0,0],
[37,11,7,11,8,10,8,9,8,0,0],
[4,8,14,0,0, 0,0, 0,0, 0,0],
[9,8,2,7,2,0,0, 0,0, 0,0],
[10,7,4,0,0, 0,0, 0,0, 0,0],
[10,11,3,0,0, 0,0, 0,0, 0,0],
[47,11,9,12,9,12,8,12,7,13,7],
[37,9,15,10,15,11,15,11,16,0,0],
[8,5,1,0,0, 0,0, 0,0, 0,0],
[2,4,13,0,0, 0,0, 0,0, 0,0],
[37,9,10,9,11,10,11,0,0, 0,0],
[31,14,14,15,14,15,15,14,15,0,0],
[36,16,15,16,14,16,13,0,0, 0,0],
[24,15,11,15,10,16,10,0,0, 0,0],
[56,4,11,3,11,3,12,2,12,1,12],
[51,9,5,10,5,10,6,10,7,0,0],
[13,4,10,5,10,0,0, 0,0, 0,0],
[1,8,1,0,0, 0,0, 0,0, 0,0],
[34,3,8,3,9,4,9,0,0, 0,0],
[20,15,9,15,8,0,0, 0,0, 0,0],
[18,6,1,7,1,0,0, 0,0, 0,0],
[19,3,10,2,10,1,10,1,9,0,0],
[6,4,15,0,0, 0,0, 0,0, 0,0],
[21,12,12,12,11,0,0, 0,0, 0,0],
[2,6,9,0,0, 0,0, 0,0, 0,0],
[31,7,12,8,12,9,12,10,12,0,0],
[6,15,7,0,0, 0,0, 0,0, 0,0],
[30,14,2,15,2,16,2,0,0, 0,0],
[13,14,3,0,0, 0,0, 0,0, 0,0],
[47,1,7,1,6,2,6,2,5,3,5],
[1,13,4,0,0, 0,0, 0,0, 0,0],
[15,8,3,0,0, 0,0, 0,0, 0,0],
[42,15,1,16,1,14,1,13,1,0,0],
[19,13,15,13,14,12,14,0,0, 0,0],
[27,3,7,4,7,4,6,3,6,0,0],
[34,12,15,12,16,13,16,14,16,0,0],
[18,4,4,5,4,5,3,0,0, 0,0],
[19,10,13,11,13,11,12,11,11,11,10],
[15,13,2,13,3,0,0, 0,0, 0,0],
[40,14,12,14,13,15,13,0,0, 0,0],
[36,3,16,4,16,2,16,1,16,0,0],
[12,2,4,0,0, 0,0, 0,0, 0,0],
[23,2,11,1,11,0,0, 0,0, 0,0],
[19,9,3,10,3,10,4,0,0, 0,0],
[38,11,6,12,6,12,5,12,4,12,3],
[17,11,14,10,14,0,0, 0,0, 0,0],
[40,4,14,3,14,3,15,0,0, 0,0],
[24,8,15,7,15,6,15,0,0, 0,0],
[5,9,2,9,1,0,0, 0,0, 0,0],
[19,1,3,1,2,2,2,0,0, 0,0],
[13,16,9,16,8,0,0, 0,0, 0,0],
[15,6,8,0,0, 0,0, 0,0, 0,0],
[27,8,5,7,5,8,6,8,7,0,0],
[1,7,7,0,0, 0,0, 0,0, 0,0],
[64,5,2,6,2,6,3,6,4,7,3],
[19,9,7,9,6,0,0, 0,0, 0,0],
[12,7,11,0,0, 0,0, 0,0, 0,0],
[13,15,12,0,0, 0,0, 0,0, 0,0],
[24,13,13,12,13,13,12,0,0, 0,0],
[15,3,4,3,3,2,3,0,0, 0,0],
[34,7,13,6,13,5,13,5,14,0,0],
[7,6,10,0,0, 0,0, 0,0, 0,0],
[14,4,3,0,0, 0,0, 0,0, 0,0],
[13,14,8,14,7,0,0, 0,0, 0,0],
[33,12,10,13,10,13,9,13,8,0,0],
[33,4,2,4,1,3,1,3,2,0,0],
[18,1,1,2,1,0,0, 0,0, 0,0],
[22,1,4,1,5,0,0, 0,0, 0,0],
[22,1,13,1,14,0,0, 0,0, 0,0],
[12,4,5,5,5,0,0, 0,0, 0,0],
[25,4,8,5,8,5,9,0,0, 0,0],
[7,4,12,0,0, 0,0, 0,0, 0,0],
[14,5,6,0,0, 0,0, 0,0, 0,0],
[27,5,7,6,7,0,0, 0,0, 0,0],
[14,5,11,5,12,6,11,0,0, 0,0],
[8,8,4,9,4,0,0, 0,0, 0,0],
[12,8,8,0,0, 0,0, 0,0, 0,0],
[44,8,9,9,9,10,9,10,10,0,0],
[9,11,4,11,5,0,0, 0,0, 0,0],
[17,12,1,12,2,0,0, 0,0, 0,0],
[16,13,5,0,0, 0,0, 0,0, 0,0],
[11,14,4,0,0, 0,0, 0,0, 0,0],
[14,14,5,0,0, 0,0, 0,0, 0,0],
[24,15,3,16,3,16,4,15,4,0,0],
[16,15,5,16,5,0,0, 0,0, 0,0],
[13,15,16,16,16,0,0, 0,0, 0,0],
[12,16,11,16,12,0,0, 0,0, 0,0]
]
